ISTS is enabled.
Day	0	Optimize a model with 7076 rows, 65638 columns and 1019880 nonzeros
Variable types: 532 continuous, 65106 integer (62278 binary)
Coefficient statistics:
  Matrix range     [1e+00, 3e+02]
  Objective range  [1e+00, 3e+03]
  Bounds range     [1e+00, 9e+01]
  RHS range        [1e+00, 6e+03]
Found heuristic solution: objective 1.01973e+06
Presolve removed 633 rows and 9186 columns
Presolve time: 3.48s
Presolved: 6443 rows, 56452 columns, 775540 nonzeros
Variable types: 0 continuous, 56452 integer (53703 binary)

Root relaxation: objective 9.149211e+05, 2474 iterations, 0.20 seconds

    Nodes    |    Current Node    |     Objective Bounds      |     Work
 Expl Unexpl |  Obj  Depth IntInf | Incumbent    BestBd   Gap | It/Node Time

     0     0 914921.058    0  132 1019727.55 914921.058  10.3%     -    4s
H    0     0                    918221.05795 914921.058  0.36%     -    4s
H    0     0                    918171.05795 914921.058  0.35%     -    4s
H    0     0                    914941.05795 914921.058  0.00%     -    4s

Explored 0 nodes (2833 simplex iterations) in 4.78 seconds
Thread count was 1 (of 16 available processors)

Solution count 4: 914941 918171 918221 1.01973e+06 
Pool objective bound 914921

Optimal solution found (tolerance 1.00e-04)
Best objective 9.149410579492e+05, best bound 9.149210579492e+05, gap 0.0022%
	MIPObjVal:	914941.0579492399	runtime:	4.786988019943237	patientsNumber:	216	room Occupancy:	0.17777777777777778	OR Occupancy:	0.33580205352634235
roomCost:	7590.0	genderPolicy:	0.0	transferCost:	300.0	delayCost:	0.0	overCrowdRisk:	0.0	overtime:	0.0	idleRoom:	118280.0	idleOR:	529650.0	eRoomIdle:	34478.872493717856	eORIdle:	224642.18545552177	roomU:	0.0	orU:	0.0
Day	1	Optimize a model with 6853 rows, 65970 columns and 880273 nonzeros
Variable types: 513 continuous, 65457 integer (62730 binary)
Coefficient statistics:
  Matrix range     [1e+00, 2e+02]
  Objective range  [8e-01, 2e+03]
  Bounds range     [1e+00, 9e+01]
  RHS range        [1e+00, 6e+03]
Found heuristic solution: objective 910484
Presolve removed 631 rows and 8028 columns
Presolve time: 2.15s
Presolved: 6222 rows, 57942 columns, 687360 nonzeros
Variable types: 0 continuous, 57942 integer (55301 binary)

Root relaxation: objective 8.054567e+05, 2411 iterations, 0.15 seconds

    Nodes    |    Current Node    |     Objective Bounds      |     Work
 Expl Unexpl |  Obj  Depth IntInf | Incumbent    BestBd   Gap | It/Node Time

     0     0 805456.742    0  130 910484.178 805456.742  11.5%     -    2s
H    0     0                    808706.74151 805456.742  0.40%     -    2s
H    0     0                    808656.74151 805456.742  0.40%     -    2s
H    0     0                    805546.74151 805456.742  0.01%     -    3s
*    0     0               0    805496.74151 805496.742  0.00%     -    3s

Cutting planes:
  Gomory: 24
  Cover: 70
  Clique: 51
  MIR: 42

Explored 0 nodes (3108 simplex iterations) in 3.46 seconds
Thread count was 1 (of 16 available processors)

Solution count 5: 805497 805547 808657 ... 910484
Pool objective bound 805497

Optimal solution found (tolerance 1.00e-04)
Best objective 8.054967415111e+05, best bound 8.054967415111e+05, gap 0.0000%
	MIPObjVal:	805496.7415110758	runtime:	3.4579579830169678	patientsNumber:	238	room Occupancy:	0.15555555555555556	OR Occupancy:	0.0
roomCost:	7720.0	genderPolicy:	0.0	transferCost:	0.0	delayCost:	0.0	overCrowdRisk:	0.0	overtime:	0.0	idleRoom:	107600.0	idleOR:	479150.0	eRoomIdle:	33213.89983279353	eORIdle:	177812.84167828207	roomU:	0.0	orU:	0.0
Day	2	Optimize a model with 6631 rows, 79660 columns and 1093259 nonzeros
Variable types: 494 continuous, 79166 integer (76540 binary)
Coefficient statistics:
  Matrix range     [1e+00, 2e+02]
  Objective range  [1e+00, 2e+03]
  Bounds range     [1e+00, 9e+01]
  RHS range        [1e+00, 6e+03]
Found heuristic solution: objective 928167
Presolve removed 535 rows and 9237 columns
Presolve time: 2.74s
Presolved: 6096 rows, 70423 columns, 866964 nonzeros
Variable types: 0 continuous, 70423 integer (67838 binary)

Root relaxation: objective 8.116683e+05, 2512 iterations, 0.19 seconds

    Nodes    |    Current Node    |     Objective Bounds      |     Work
 Expl Unexpl |  Obj  Depth IntInf | Incumbent    BestBd   Gap | It/Node Time

     0     0 811668.325    0  120 928166.518 811668.325  12.6%     -    3s
H    0     0                    821902.32534 811668.325  1.25%     -    3s
H    0     0                    814668.32487 811668.325  0.37%     -    3s
H    0     0                    814618.32487 811668.325  0.36%     -    3s
H    0     0                    811713.96625 811668.325  0.01%     -    4s

Explored 0 nodes (2930 simplex iterations) in 4.33 seconds
Thread count was 1 (of 16 available processors)

Solution count 5: 811714 814618 814668 ... 928167
Pool objective bound 811668

Optimal solution found (tolerance 1.00e-04)
Best objective 8.117139662537e+05, best bound 8.116683248709e+05, gap 0.0056%
	MIPObjVal:	811713.9662537096	runtime:	4.3303258419036865	patientsNumber:	261	room Occupancy:	0.12727272727272726	OR Occupancy:	0.0
roomCost:	8380.0	genderPolicy:	0.0	transferCost:	0.0	delayCost:	5.0	overCrowdRisk:	0.0	overtime:	0.0	idleRoom:	95720.0	idleOR:	470200.0	eRoomIdle:	33397.46397640033	eORIdle:	204011.5022773093	roomU:	0.0	orU:	0.0
Day	3	Optimize a model with 6409 rows, 91332 columns and 1262223 nonzeros
Variable types: 475 continuous, 90857 integer (88332 binary)
Coefficient statistics:
  Matrix range     [1e+00, 2e+02]
  Objective range  [1e+00, 2e+03]
  Bounds range     [1e+00, 9e+01]
  RHS range        [1e+00, 6e+03]
Found heuristic solution: objective 953834
Presolve removed 499 rows and 11193 columns
Presolve time: 3.08s
Presolved: 5910 rows, 80139 columns, 985465 nonzeros
Variable types: 0 continuous, 80139 integer (77638 binary)

Root relaxation: objective 8.207773e+05, 2763 iterations, 0.22 seconds

    Nodes    |    Current Node    |     Objective Bounds      |     Work
 Expl Unexpl |  Obj  Depth IntInf | Incumbent    BestBd   Gap | It/Node Time

     0     0 820777.349    0  132 953833.642 820777.349  13.9%     -    3s
H    0     0                    827465.35073 820777.349  0.81%     -    4s
H    0     0                    824077.34919 820777.349  0.40%     -    4s
H    0     0                    824032.58655 820777.349  0.40%     -    4s
H    0     0                    820802.68942 820777.349  0.00%     -    4s

Explored 0 nodes (3225 simplex iterations) in 4.93 seconds
Thread count was 1 (of 16 available processors)

Solution count 5: 820803 824033 824077 ... 953834
Pool objective bound 820777

Optimal solution found (tolerance 1.00e-04)
Best objective 8.208026894228e+05, best bound 8.207773491879e+05, gap 0.0031%
	MIPObjVal:	820802.6894228177	runtime:	4.93253493309021	patientsNumber:	284	room Occupancy:	0.19595959595959597	OR Occupancy:	0.074061605790271
roomCost:	8840.0	genderPolicy:	0.0	transferCost:	0.0	delayCost:	10.0	overCrowdRisk:	0.0	overtime:	0.0	idleRoom:	84360.0	idleOR:	459000.0	eRoomIdle:	32553.47159388244	eORIdle:	236039.21782893516	roomU:	0.0	orU:	0.0
Day	4	Optimize a model with 6179 rows, 82325 columns and 1137863 nonzeros
Variable types: 456 continuous, 81869 integer (79445 binary)
Coefficient statistics:
  Matrix range     [1e+00, 3e+02]
  Objective range  [1e+00, 3e+03]
  Bounds range     [1e+00, 9e+01]
  RHS range        [1e+00, 6e+03]
Found heuristic solution: objective 884024
Presolve removed 472 rows and 11572 columns
Presolve time: 2.69s
Presolved: 5707 rows, 70753 columns, 864348 nonzeros
Variable types: 0 continuous, 70753 integer (68350 binary)

Root relaxation: objective 7.440509e+05, 2561 iterations, 0.20 seconds

    Nodes    |    Current Node    |     Objective Bounds      |     Work
 Expl Unexpl |  Obj  Depth IntInf | Incumbent    BestBd   Gap | It/Node Time

     0     0 744050.892    0  120 884023.835 744050.892  15.8%     -    3s
H    0     0                    745119.41734 744050.892  0.14%     -    3s
H    0     0                    744090.89157 744050.892  0.01%     -    4s

Explored 0 nodes (3013 simplex iterations) in 4.26 seconds
Thread count was 1 (of 16 available processors)

Solution count 3: 744091 745119 884024 
Pool objective bound 744051

Optimal solution found (tolerance 1.00e-04)
Best objective 7.440908915734e+05, best bound 7.440508915734e+05, gap 0.0054%
	MIPObjVal:	744090.8915734035	runtime:	4.264928817749023	patientsNumber:	299	room Occupancy:	0.24242424242424243	OR Occupancy:	0.148123211580542
roomCost:	8960.0	genderPolicy:	0.0	transferCost:	0.0	delayCost:	0.0	overCrowdRisk:	0.0	overtime:	0.0	idleRoom:	74260.0	idleOR:	387450.0	eRoomIdle:	30291.78954083201	eORIdle:	243129.10203257136	roomU:	0.0	orU:	0.0
Day	5	Optimize a model with 5941 rows, 76338 columns and 1017862 nonzeros
Variable types: 437 continuous, 75901 integer (73578 binary)
Coefficient statistics:
  Matrix range     [1e+00, 3e+02]
  Objective range  [1e+00, 3e+03]
  Bounds range     [1e+00, 9e+01]
  RHS range        [1e+00, 6e+03]
Found heuristic solution: objective 787507
Presolve removed 455 rows and 11442 columns
Presolve time: 2.34s
Presolved: 5486 rows, 64896 columns, 769036 nonzeros
Variable types: 0 continuous, 64896 integer (62596 binary)

Root relaxation: objective 6.473783e+05, 2532 iterations, 0.18 seconds

    Nodes    |    Current Node    |     Objective Bounds      |     Work
 Expl Unexpl |  Obj  Depth IntInf | Incumbent    BestBd   Gap | It/Node Time

     0     0 647378.266    0  150 787506.944 647378.266  17.8%     -    2s
H    0     0                    649088.02011 647378.266  0.26%     -    3s
H    0     0                    647448.74258 647378.266  0.01%     -    4s
     0     0 647397.096    0   67 647448.743 647397.096  0.01%     -    4s

Cutting planes:
  Cover: 57
  Clique: 50
  MIR: 64

Explored 0 nodes (3561 simplex iterations) in 4.65 seconds
Thread count was 1 (of 16 available processors)

Solution count 3: 647449 649088 787507 
Pool objective bound 647397

Optimal solution found (tolerance 1.00e-04)
Best objective 6.474487425766e+05, best bound 6.473970957151e+05, gap 0.0080%
	MIPObjVal:	647448.7425765957	runtime:	4.650404930114746	patientsNumber:	306	room Occupancy:	0.27070707070707073	OR Occupancy:	0.24406665544521125
roomCost:	8650.0	genderPolicy:	0.0	transferCost:	0.0	delayCost:	25.0	overCrowdRisk:	1.0	overtime:	0.0	idleRoom:	64780.0	idleOR:	328000.0	eRoomIdle:	27563.214985373932	eORIdle:	218429.52759122182	roomU:	0.0	orU:	0.0
Day	6	Optimize a model with 5699 rows, 72676 columns and 876052 nonzeros
Variable types: 418 continuous, 72258 integer (70036 binary)
Coefficient statistics:
  Matrix range     [1e+00, 3e+02]
  Objective range  [1e+00, 3e+03]
  Bounds range     [1e+00, 9e+01]
  RHS range        [1e+00, 6e+03]
Found heuristic solution: objective 663260
Presolve removed 460 rows and 10352 columns
Presolve time: 1.91s
Presolved: 5239 rows, 62324 columns, 668863 nonzeros
Variable types: 0 continuous, 62324 integer (60144 binary)

Root relaxation: objective 5.493727e+05, 2643 iterations, 0.16 seconds

    Nodes    |    Current Node    |     Objective Bounds      |     Work
 Expl Unexpl |  Obj  Depth IntInf | Incumbent    BestBd   Gap | It/Node Time

     0     0 549372.680    0  116 663259.785 549372.680  17.2%     -    2s
H    0     0                    551073.86933 549372.680  0.31%     -    2s
H    0     0                    549454.86933 549372.680  0.01%     -    3s
     0     0 549399.942    0   24 549454.869 549399.942  0.01%     -    3s

Cutting planes:
  Cover: 43
  Clique: 39
  MIR: 47
  GUB cover: 1

Explored 0 nodes (3472 simplex iterations) in 3.37 seconds
Thread count was 1 (of 16 available processors)

Solution count 3: 549455 551074 663260 
Pool objective bound 549400

Optimal solution found (tolerance 1.00e-04)
Best objective 5.494548693283e+05, best bound 5.493999416713e+05, gap 0.0100%
	MIPObjVal:	549454.8693283245	runtime:	3.37273907661438	patientsNumber:	309	room Occupancy:	0.301010101010101	OR Occupancy:	0.26510688436290186
roomCost:	8310.0	genderPolicy:	0.0	transferCost:	0.0	delayCost:	25.0	overCrowdRisk:	5.0	overtime:	0.0	idleRoom:	56080.0	idleOR:	272250.0	eRoomIdle:	24333.03353139796	eORIdle:	188451.83579692658	roomU:	0.0	orU:	0.0
Day	7	Optimize a model with 5454 rows, 68925 columns and 741041 nonzeros
Variable types: 399 continuous, 68526 integer (66405 binary)
Coefficient statistics:
  Matrix range     [1e+00, 3e+02]
  Objective range  [1e+00, 3e+03]
  Bounds range     [1e+00, 9e+01]
  RHS range        [1e+00, 6e+03]
Found heuristic solution: objective 573393
Presolve removed 445 rows and 8466 columns
Presolve time: 1.61s
Presolved: 5009 rows, 60459 columns, 590429 nonzeros
Variable types: 0 continuous, 60459 integer (58388 binary)

Root relaxation: objective 4.506673e+05, 2270 iterations, 0.13 seconds

    Nodes    |    Current Node    |     Objective Bounds      |     Work
 Expl Unexpl |  Obj  Depth IntInf | Incumbent    BestBd   Gap | It/Node Time

     0     0 450667.292    0  102 573392.685 450667.292  21.4%     -    1s
H    0     0                    453217.29249 450667.292  0.56%     -    2s
H    0     0                    453076.69291 450667.292  0.53%     -    2s
H    0     0                    450792.81176 450667.292  0.03%     -    2s
     0     0 450740.455    0   47 450792.812 450740.455  0.01%     -    3s
     0     0 450740.455    0   86 450792.812 450740.455  0.01%     -    4s
     0     0 450755.763    0   37 450792.812 450755.763  0.01%     -    5s

Cutting planes:
  Gomory: 13
  Cover: 33
  Clique: 82
  MIR: 31
  Flow cover: 9
  GUB cover: 1

Explored 0 nodes (5897 simplex iterations) in 5.02 seconds
Thread count was 1 (of 16 available processors)

Solution count 5: 450793 453077 453217 ... 573393
Pool objective bound 450756

Optimal solution found (tolerance 1.00e-04)
Best objective 4.507928117641e+05, best bound 4.507557633191e+05, gap 0.0082%
	MIPObjVal:	450792.81176412536	runtime:	5.019102096557617	patientsNumber:	309	room Occupancy:	0.34545454545454546	OR Occupancy:	0.4856084834202996
roomCost:	7930.0	genderPolicy:	0.0	transferCost:	0.0	delayCost:	30.0	overCrowdRisk:	4.0	overtime:	0.0	idleRoom:	47480.0	idleOR:	221500.0	eRoomIdle:	21308.863571232177	eORIdle:	152539.9481928932	roomU:	0.0	orU:	0.0
Day	8	Optimize a model with 5207 rows, 58893 columns and 516127 nonzeros
Variable types: 380 continuous, 58513 integer (56493 binary)
Coefficient statistics:
  Matrix range     [1e+00, 3e+02]
  Objective range  [8e-01, 3e+03]
  Bounds range     [1e+00, 9e+01]
  RHS range        [1e+00, 6e+03]
Found heuristic solution: objective 457976
Presolve removed 447 rows and 6828 columns
Presolve time: 1.02s
Presolved: 4760 rows, 52065 columns, 418723 nonzeros
Variable types: 0 continuous, 52065 integer (50104 binary)

Root relaxation: objective 3.498877e+05, 2112 iterations, 0.09 seconds

    Nodes    |    Current Node    |     Objective Bounds      |     Work
 Expl Unexpl |  Obj  Depth IntInf | Incumbent    BestBd   Gap | It/Node Time

     0     0 349887.665    0   64 457975.530 349887.665  23.6%     -    1s
H    0     0                    351723.94758 349887.665  0.52%     -    1s
H    0     0                    350517.36417 349887.665  0.18%     -    1s
H    0     0                    350009.85682 349887.665  0.03%     -    1s
     0     0 350001.879    0   18 350009.857 350001.879  0.00%     -    2s

Cutting planes:
  Cover: 36
  Clique: 84
  MIR: 38

Explored 0 nodes (2992 simplex iterations) in 2.21 seconds
Thread count was 1 (of 16 available processors)

Solution count 4: 350010 350517 351724 457976 
Pool objective bound 350002

Optimal solution found (tolerance 1.00e-04)
Best objective 3.500098568154e+05, best bound 3.500018786468e+05, gap 0.0023%
	MIPObjVal:	350009.8568153832	runtime:	2.214766025543213	patientsNumber:	307	room Occupancy:	0.301010101010101	OR Occupancy:	0.0
roomCost:	7050.0	genderPolicy:	0.0	transferCost:	0.0	delayCost:	45.0	overCrowdRisk:	5.0	overtime:	0.0	idleRoom:	40240.0	idleOR:	182650.0	eRoomIdle:	17546.914536238135	eORIdle:	102472.94227914502	roomU:	0.0	orU:	0.0
Day	9	Optimize a model with 4967 rows, 67452 columns and 578442 nonzeros
Variable types: 361 continuous, 67091 integer (65172 binary)
Coefficient statistics:
  Matrix range     [1e+00, 3e+02]
  Objective range  [1e+00, 3e+03]
  Bounds range     [1e+00, 9e+01]
  RHS range        [1e+00, 6e+03]
Found heuristic solution: objective 461145
Presolve removed 398 rows and 7919 columns
Presolve time: 1.21s
Presolved: 4569 rows, 59533 columns, 468304 nonzeros
Variable types: 0 continuous, 59533 integer (57652 binary)

Root relaxation: objective 3.452929e+05, 2185 iterations, 0.10 seconds

    Nodes    |    Current Node    |     Objective Bounds      |     Work
 Expl Unexpl |  Obj  Depth IntInf | Incumbent    BestBd   Gap | It/Node Time

     0     0 345292.896    0   80 461145.181 345292.896  25.1%     -    1s
H    0     0                    347144.36060 345292.896  0.53%     -    1s
H    0     0                    345632.56034 345292.896  0.10%     -    2s
     0     0 345465.470    0   93 345632.560 345465.470  0.05%     -    2s
     0     0 345516.018    0   60 345632.560 345516.018  0.03%     -    2s
     0     0 345536.112    0   99 345632.560 345536.112  0.03%     -    3s
     0     0 345536.112    0   73 345632.560 345536.112  0.03%     -    4s
     0     0 345536.112    0   74 345632.560 345536.112  0.03%     -    4s
     0     0 345536.112    0   65 345632.560 345536.112  0.03%     -    4s
     0     0 345552.688    0   55 345632.560 345552.688  0.02%     -    4s
     0     0 345553.895    0   51 345632.560 345553.895  0.02%     -    4s
     0     0 345556.324    0   49 345632.560 345556.324  0.02%     -    5s
     0     1 345567.037    0   45 345632.560 345567.037  0.02%     -    5s

Cutting planes:
  Gomory: 5
  Cover: 8
  Clique: 8
  MIR: 1
  Flow cover: 6
  Zero half: 1

Explored 4 nodes (7527 simplex iterations) in 5.72 seconds
Thread count was 1 (of 16 available processors)

Solution count 4: 345633 347144 347144 461145 
Pool objective bound 345627

Optimal solution found (tolerance 1.00e-04)
Best objective 3.456325603444e+05, best bound 3.456274244663e+05, gap 0.0015%
	MIPObjVal:	345632.5603443532	runtime:	5.723855018615723	patientsNumber:	312	room Occupancy:	0.2545454545454545	OR Occupancy:	0.0
roomCost:	6370.0	genderPolicy:	150.0	transferCost:	0.0	delayCost:	45.0	overCrowdRisk:	6.0	overtime:	90.0	idleRoom:	32320.0	idleOR:	172150.0	eRoomIdle:	14722.067608252813	eORIdle:	119779.4927361004	roomU:	0.0	orU:	0.0
Day	10	Optimize a model with 4752 rows, 78346 columns and 676667 nonzeros
Variable types: 342 continuous, 78004 integer (76186 binary)
Coefficient statistics:
  Matrix range     [1e+00, 3e+02]
  Objective range  [1e+00, 3e+03]
  Bounds range     [1e+00, 9e+01]
  RHS range        [1e+00, 6e+03]
Found heuristic solution: objective 472356
Presolve removed 370 rows and 9741 columns
Presolve time: 1.40s
Presolved: 4382 rows, 68605 columns, 543389 nonzeros
Variable types: 0 continuous, 68605 integer (66816 binary)

Root relaxation: objective 3.437791e+05, 2229 iterations, 0.13 seconds

    Nodes    |    Current Node    |     Objective Bounds      |     Work
 Expl Unexpl |  Obj  Depth IntInf | Incumbent    BestBd   Gap | It/Node Time

     0     0 343779.131    0   86 472356.232 343779.131  27.2%     -    1s
H    0     0                    346635.67552 343779.131  0.82%     -    2s
H    0     0                    345912.77304 343779.131  0.62%     -    2s
H    0     0                    344181.73162 343779.131  0.12%     -    2s
     0     0 343944.500    0   72 344181.732 343944.500  0.07%     -    2s
     0     0 344024.707    0   40 344181.732 344024.707  0.05%     -    3s
     0     0 344043.398    0   98 344181.732 344043.398  0.04%     -    3s
     0     0 344043.398    0   74 344181.732 344043.398  0.04%     -    5s
     0     0 344043.398    0   58 344181.732 344043.398  0.04%     -    5s
     0     0 344073.516    0   37 344181.732 344073.516  0.03%     -    5s
     0     0 344103.516    0   52 344181.732 344103.516  0.02%     -    5s
     0     1 344111.045    0   52 344181.732 344111.045  0.02%     -    6s

Cutting planes:
  Gomory: 9
  Cover: 9
  Clique: 10
  MIR: 1
  Flow cover: 4
  Zero half: 3

Explored 4 nodes (8004 simplex iterations) in 6.87 seconds
Thread count was 1 (of 16 available processors)

Solution count 5: 344182 344182 345913 ... 472356
Pool objective bound 344148

Optimal solution found (tolerance 1.00e-04)
Best objective 3.441817316184e+05, best bound 3.441483634339e+05, gap 0.0097%
	MIPObjVal:	344181.73161836166	runtime:	6.872320175170898	patientsNumber:	342	room Occupancy:	0.36363636363636365	OR Occupancy:	0.25669079279582563
roomCost:	6460.0	genderPolicy:	350.0	transferCost:	0.0	delayCost:	35.0	overCrowdRisk:	9.0	overtime:	90.0	idleRoom:	23100.0	idleOR:	155400.0	eRoomIdle:	12938.172949883257	eORIdle:	145799.5586684784	roomU:	0.0	orU:	0.0
Day	11	Optimize a model with 4516 rows, 70285 columns and 554656 nonzeros
Variable types: 323 continuous, 69962 integer (68245 binary)
Coefficient statistics:
  Matrix range     [1e+00, 3e+02]
  Objective range  [9e-01, 3e+03]
  Bounds range     [1e+00, 9e+01]
  RHS range        [1e+00, 6e+03]
Found heuristic solution: objective 371849
Presolve removed 349 rows and 8836 columns
Presolve time: 1.14s
Presolved: 4167 rows, 61449 columns, 437466 nonzeros
Variable types: 0 continuous, 61449 integer (59764 binary)

Root relaxation: objective 2.574392e+05, 2126 iterations, 0.11 seconds

    Nodes    |    Current Node    |     Objective Bounds      |     Work
 Expl Unexpl |  Obj  Depth IntInf | Incumbent    BestBd   Gap | It/Node Time

     0     0 257439.244    0   68 371849.332 257439.244  30.8%     -    1s
H    0     0                    262925.00592 257439.244  2.09%     -    1s
H    0     0                    259577.83366 257439.244  0.82%     -    1s
H    0     0                    259161.51081 257439.244  0.66%     -    1s
H    0     0                    258011.79717 257439.244  0.22%     -    2s
     0     0 257782.109    0  116 258011.797 257782.109  0.09%     -    2s
     0     0 257786.707    0   61 258011.797 257786.707  0.09%     -    3s
     0     0 257851.411    0   82 258011.797 257851.411  0.06%     -    3s
     0     0 257851.411    0   70 258011.797 257851.411  0.06%     -    4s
     0     0 257851.411    0   56 258011.797 257851.411  0.06%     -    5s
     0     0 257851.411    0   82 258011.797 257851.411  0.06%     -    5s
     0     0 257861.966    0   70 258011.797 257861.966  0.06%     -    5s
     0     0 257867.697    0   49 258011.797 257867.697  0.06%     -    5s
     0     0 257872.488    0   46 258011.797 257872.488  0.05%     -    5s
     0     2 257910.630    0   45 258011.797 257910.630  0.04%     -    6s
    12    12 257984.841    0   82 258011.797 257984.841  0.01%   562   10s

Cutting planes:
  Gomory: 16
  Cover: 16
  Clique: 25
  MIR: 3
  Flow cover: 6

Explored 21 nodes (11917 simplex iterations) in 11.17 seconds
Thread count was 1 (of 16 available processors)

Solution count 5: 258012 259162 259578 ... 371849
Pool objective bound 257989

Optimal solution found (tolerance 1.00e-04)
Best objective 2.580117971707e+05, best bound 2.579887886942e+05, gap 0.0089%
	MIPObjVal:	258011.79717065394	runtime:	11.17282509803772	patientsNumber:	351	room Occupancy:	0.45252525252525255	OR Occupancy:	0.34001009930988046
roomCost:	5980.0	genderPolicy:	350.0	transferCost:	0.0	delayCost:	50.0	overCrowdRisk:	12.0	overtime:	90.0	idleRoom:	15480.0	idleOR:	100650.0	eRoomIdle:	10411.187954601837	eORIdle:	124988.60921605211	roomU:	0.0	orU:	0.0
Day	12	Optimize a model with 4254 rows, 56257 columns and 401202 nonzeros
Variable types: 304 continuous, 55953 integer (54337 binary)
Coefficient statistics:
  Matrix range     [1e+00, 3e+02]
  Objective range  [7e-01, 3e+03]
  Bounds range     [1e+00, 9e+01]
  RHS range        [1e+00, 6e+03]
Found heuristic solution: objective 269450
Presolve removed 335 rows and 8141 columns
Presolve time: 0.76s
Presolved: 3919 rows, 48116 columns, 299751 nonzeros
Variable types: 0 continuous, 48116 integer (46531 binary)

Root relaxation: objective 1.734873e+05, 1811 iterations, 0.08 seconds

    Nodes    |    Current Node    |     Objective Bounds      |     Work
 Expl Unexpl |  Obj  Depth IntInf | Incumbent    BestBd   Gap | It/Node Time

     0     0 173487.315    0   52 269450.100 173487.315  35.6%     -    0s
H    0     0                    174787.31521 173487.315  0.74%     -    1s
H    0     0                    173969.93145 173487.315  0.28%     -    1s
     0     0 173828.259    0   62 173969.931 173828.259  0.08%     -    1s
     0     0 173835.756    0   64 173969.931 173835.756  0.08%     -    1s
     0     0 173881.809    0   46 173969.931 173881.809  0.05%     -    2s
     0     0 173881.809    0   37 173969.931 173881.809  0.05%     -    2s
     0     0 173882.871    0   47 173969.931 173882.871  0.05%     -    3s
     0     0 173921.345    0   46 173969.931 173921.345  0.03%     -    3s
     0     0 173926.625    0   41 173969.931 173926.625  0.02%     -    3s
     0     2 173958.514    0   35 173969.931 173958.514  0.01%     -    3s

Cutting planes:
  Gomory: 16
  Cover: 28
  Clique: 86
  MIR: 23
  Zero half: 1

Explored 1 nodes (5288 simplex iterations) in 3.58 seconds
Thread count was 1 (of 16 available processors)

Solution count 4: 173970 174787 174787 269450 
Pool objective bound 173959

Optimal solution found (tolerance 1.00e-04)
Best objective 1.739699314480e+05, best bound 1.739585143240e+05, gap 0.0066%
	MIPObjVal:	173969.93144799638	runtime:	3.5772361755371094	patientsNumber:	334	room Occupancy:	0.5050505050505051	OR Occupancy:	0.4435280255849184
roomCost:	4770.0	genderPolicy:	250.0	transferCost:	0.0	delayCost:	100.0	overCrowdRisk:	7.0	overtime:	90.0	idleRoom:	9440.0	idleOR:	52750.0	eRoomIdle:	7298.368322421777	eORIdle:	99264.56312557463	roomU:	0.0	orU:	0.0
Day	13	Optimize a model with 3986 rows, 43464 columns and 242952 nonzeros
Variable types: 285 continuous, 43179 integer (41664 binary)
Coefficient statistics:
  Matrix range     [1e+00, 2e+02]
  Objective range  [4e-01, 2e+03]
  Bounds range     [1e+00, 9e+01]
  RHS range        [1e+00, 6e+03]
Found heuristic solution: objective 161413
Presolve removed 543 rows and 5375 columns
Presolve time: 0.54s
Presolved: 3443 rows, 38089 columns, 182942 nonzeros
Variable types: 0 continuous, 38089 integer (36722 binary)

Root relaxation: objective 9.067493e+04, 1432 iterations, 0.04 seconds

    Nodes    |    Current Node    |     Objective Bounds      |     Work
 Expl Unexpl |  Obj  Depth IntInf | Incumbent    BestBd   Gap | It/Node Time

     0     0 90674.9256    0   26 161413.340 90674.9256  43.8%     -    0s
H    0     0                    91324.925640 90674.9256  0.71%     -    0s
H    0     0                    91279.967092 90674.9256  0.66%     -    0s
H    0     0                    90845.293428 90674.9256  0.19%     -    0s
     0     0 90783.3853    0   40 90845.2934 90783.3853  0.07%     -    0s
     0     0 90807.2112    0   29 90845.2934 90807.2112  0.04%     -    1s
     0     0 90811.0853    0    6 90845.2934 90811.0853  0.04%     -    1s
     0     0 90835.0085    0    5 90845.2934 90835.0085  0.01%     -    1s
     0     0     cutoff    0      90845.2934 90845.2934  0.00%     -    1s

Cutting planes:
  Gomory: 3
  Cover: 7
  Implied bound: 1
  Clique: 9

Explored 0 nodes (2703 simplex iterations) in 1.48 seconds
Thread count was 1 (of 16 available processors)

Solution count 4: 90845.3 91280 91324.9 161413 
Pool objective bound 90845.3

Optimal solution found (tolerance 1.00e-04)
Best objective 9.084529342799e+04, best bound 9.084529342799e+04, gap 0.0000%
	MIPObjVal:	90845.2934279851	runtime:	1.4814319610595703	patientsNumber:	311	room Occupancy:	0.6	OR Occupancy:	0.7591314593502777
roomCost:	3090.0	genderPolicy:	150.0	transferCost:	0.0	delayCost:	110.0	overCrowdRisk:	0.0	overtime:	60.0	idleRoom:	3960.0	idleOR:	14300.0	eRoomIdle:	4139.383878324153	eORIdle:	65035.909549660995	roomU:	0.0	orU:	0.0
Violations:	0	Total ObjVal:	26722	Runtime:	0.0	Room occupancy ratio:	0.34404764	OR occupancy ratio:	0.33526936
The dynamic result in	./Results/FS3LowO/or_pas_dept4_short03_sol0.xml	violations:	0	total ObjVal:	26722	runtime:	79.839	average_patient_number:	298
